(set-info :min-time 0.168936264)
; Start decls (11)
(declare-fun b11 () (_ FloatingPoint 11 53))
(declare-fun b13 () (_ FloatingPoint 11 53))
(declare-fun b29 () (_ FloatingPoint 11 53))
(declare-fun b30 () (_ FloatingPoint 11 53))
(declare-fun b34 () (_ FloatingPoint 11 53))
(declare-fun b37 () (_ FloatingPoint 11 53))
(declare-fun b41 () (_ FloatingPoint 11 53))
(declare-fun b44 () (_ FloatingPoint 11 53))
(declare-fun b51 () (_ FloatingPoint 11 53))
(declare-fun b54 () (_ FloatingPoint 11 53))
(declare-fun b9 () (_ FloatingPoint 11 53))
; End decls
; Start constraints (10)
(assert (fp.lt b11 (fp.add roundNearestTiesToEven b13 b9)))
(assert (fp.leq b9 b11))
(assert (fp.leq b29 b34))
(assert (fp.leq b37 b29))
(assert (fp.leq b9 b41))
(assert (fp.leq b44 b9))
(assert (fp.leq b30 b41))
(assert (fp.leq b44 b30))
(assert (fp.leq b13 b51))
(assert (fp.leq b54 b13))
; End constraints
(check-sat)
